OS/data/mpsFiles/parinc.mps
NAME  ParInc. From Anderson, Sweeney, Williams, Camm, and Martin 13e
*****************************************************
* NOTICE: Generated by the MPS export utility for 
* a maximization type problem.
*
* The objective coefficients have flipped signs. 
* Interpret the objective value from the solution of
* this model accordingly.
*****************************************************
ROWS
 N       OBJ
 L  R0000000
 L  R0000001
 L  R0000002
 L  R0000003
COLUMNS
    x0       OBJ           -10
    x0  R0000000           0.7   R0000001           0.5
    x0  R0000002             1   R0000003           0.1
    x1       OBJ           -9
    x1  R0000000             1   R0000001        0.8333
    x1  R0000002        0.6667   R0000003          0.25
RHS
    RHS1      R0000000           630
    RHS1      R0000001           600
    RHS1      R0000002           708
    RHS1      R0000003           135
BOUNDS
ENDATA
